n_machines = 3;
n_resources = 6;
n_jobs = 120;
horizon = 57372;
LB = 19124;
n_jobs_per_resource = [20, 20, 20, 20, 20, 20];
duration = [323, 55, 90, 191, 806, 422, 352, 151, 894, 333, 825, 874, 159, 987, 22, 82, 557, 521, 500, 862, 980, 326, 797, 859, 472, 168, 82, 16, 546, 961, 710, 302, 788, 740, 694, 786, 491, 50, 341, 569, 763, 302, 348, 31, 906, 913, 831, 155, 290, 242, 458, 474, 370, 406, 978, 119, 478, 496, 328, 300, 154, 21, 800, 472, 902, 518, 496, 557, 651, 555, 539, 436, 276, 161, 238, 560, 31, 887, 210, 388, 531, 979, 856, 745, 324, 308, 411, 271, 897, 843, 278, 519, 879, 819, 918, 828, 446, 626, 330, 740, 361, 611, 184, 790, 739, 322, 41, 538, 317, 227, 20, 935, 92, 159, 81, 45, 311, 196, 307, 824]